000 000 000 000 000 000 000 000 -99 -99 -99 -99 000 000 000 -99 -99 -99 000 000 -99 -99 -99 000 000 000 000 000 -99 -99 000
000 000 000 000 000 000 000 000 -99 -99 -99 -99 -99 000 000 000 -99 000 -99 000 -99 -99 000 000 000 000 000 000 -99 -99 000
000 000 000 000 000 000 000 000 000 -99 -99 -99 -99 -99 000 000 000 000 -99 -99 -99 -99 -99 000 000 000 000 000 000 -99 -99
000 000 000 000 000 000 000 000 000 000 -99 000 000 -99 000 000 -99 -99 -99 -99 000 -99 000 000 000 000 000 000 000 000 -99
000 000 000 000 000 -99 000 000 000 000 -99 000 000 000 000 000 -99 -99 -99 -99 000 000 000 000 000 000 000 000 000 -99 -99
000 000 000 000 000 -99 000 000 000 000 -99 -99 000 000 -99 000 000 -99 -99 -99 000 000 000 000 000 000 000 000 000 -99 -99
000 000 000 000 000 000 000 000 000 -99 000 -99 000 000 -99 000 000 -99 -99 -99 000 000 000 000 000 000 000 -99 -99 -99 -99
000 000 000 000 000 000 000 -99 000 -99 000 -99 -99 000 -99 000 000 000 -99 -99 000 000 000 000 000 000 000 -99 -99 -99 -99
000 000 000 000 000 -99 -99 -99 -99 -99 -99 -99 -99 -99 -99 -99 000 000 000 -99 000 -99 -99 000 000 000 000 000 -99 000 000
000 000 000 000 000 -99 -99 -99 -99 000 000 000 -99 -99 -99 -99 -99 000 000 -99 000 000 -99 -99 000 000 000 000 -99 000 000
000 000 000 000 000 -99 000 -99 -99 000 000 000 -99 -99 -99 -99 -99 000 000 -99 000 000 -99 000 000 000 000 000 000 000 000
000 000 000 000 000 -99 000 000 -99 000 000 000 -99 -99 -99 -99 000 -99 000 000 000 -99 -99 000 000 000 -99 -99 000 000 000
000 000 000 000 000 000 000 000 000 000 000 000 -99 -99 -99 -99 000 -99 000 -99 -99 -99 -99 000 000 000 000 -99 -99 000 000
000 000 000 000 000 000 000 000 000 -99 000 000 000 -99 -99 -99 -99 -99 000 000 -99 -99 -99 000 000 000 000 000 -99 -99 -99
000 000 000 000 001 001 000 000 000 -99 -99 -99 -99 000 000 000 -99 -99 000 000 -99 -99 -99 000 000 000 000 000 -99 -99 000
000 000 000 000 001 002 001 000 000 000 000 000 000 000 000 000 000 000 000 -99 -99 -99 -99 000 000 000 000 000 -99 000 000
000 000 000 000 001 001 001 001 000 000 000 000 001 000 000 000 000 000 000 000 -99 -99 000 000 -99 000 000 000 000 000 000
000 000 005 002 001 001 001 003 002 000 000 000 002 001 002 001 001 000 000 000 000 -99 000 -99 -99 000 000 000 000 000 000
001 004 006 005 004 003 003 005 003 002 001 001 002 003 004 003 002 001 000 000 000 000 000 -99 -99 000 000 000 000 000 000
002 003 003 005 010 007 006 009 006 005 002 002 002 004 005 006 004 004 005 002 003 000 000 -99 -99 000 -99 000 000 -99 -99
007 004 001 003 007 012 006 007 008 005 001 001 001 002 005 006 004 005 005 004 008 003 001 -99 -99 -99 -99 -99 -99 -99 -99
006 004 000 001 007 021 017 008 007 004 001 001 003 004 006 005 005 005 006 008 010 005 001 -99 -99 -99 -99 -99 -99 -99 -99
007 002 000 001 008 029 055 012 007 003 000 001 004 007 007 004 004 004 006 021 013 007 001 -99 -99 -99 -99 -99 -99 -99 -99
009 007 005 001 008 052 044 014 005 001 001 002 007 009 006 004 003 004 007 024 008 003 001 -99 -99 -99 -99 -99 -99 -99 -99
012 010 010 002 001 011 019 008 000 000 003 005 012 008 004 002 002 006 018 014 004 001 001 -99 -99 -99 -99 -99 -99 -99 000
034 020 018 009 000 000 001 001 000 000 001 004 003 003 002 001 002 008 014 009 003 001 000 -99 -99 -99 -99 -99 -99 -99 000
031 020 029 015 003 000 000 000 000 000 000 001 001 000 000 001 003 008 008 008 006 005 004 -99 -99 -99 -99 -99 -99 -99 000
018 019 034 021 011 003 000 000 000 000 000 000 000 000 000 003 008 009 007 007 006 006 005 003 001 -99 -99 -99 -99 -99 000
013 010 027 033 021 005 002 000 000 000 000 000 000 000 000 002 003 008 011 010 007 005 005 002 008 007 -99 -99 -99 -99 000
007 005 020 018 020 007 001 000 000 000 000 001 001 001 000 002 003 009 019 018 009 011 018 010 019 005 003 005 002 002 001
002 001 012 018 015 004 001 000 000 001 001 002 002 002 003 002 003 010 032 046 054 034 039 021 037 006 003 005 002 002 003
002 001 005 022 013 011 010 001 005 002 002 005 006 004 003 004 006 013 072 066 083 077 052 072 068 008 007 013 008 006 005
002 002 016 020 009 009 011 004 007 010 006 027 020 006 006 009 005 006 047 035 039 072 107 098 065 021 013 042 031 009 010
007 004 014 010 016 011 011 009 012 011 013 047 020 011 018 014 005 007 012 014 028 071 143 071 066 056 046 085 053 016 018
006 016 012 028 029 022 023 011 011 017 043 066 053 015 029 007 007 013 007 024 072 118 116 055 039 066 058 075 062 013 020
006 012 031 056 053 046 039 018 021 029 037 039 033 031 023 013 032 023 021 033 054 100 116 042 015 025 044 053 047 028 064
010 013 031 029 044 031 043 016 016 015 023 019 023 037 017 028 036 033 020 058 061 077 114 039 023 025 033 040 042 031 047
004 013 013 010 009 007 040 017 011 012 011 008 017 030 023 036 039 033 030 025 066 054 066 028 013 028 023 037 037 035 031
008 013 009 005 004 011 020 003 003 006 009 007 011 031 011 018 029 033 044 031 038 046 022 012 009 010 015 017 024 023 018
004 004 005 006 004 009 004 002 002 002 011 004 009 007 013 017 028 022 034 021 024 019 019 010 006 005 005 010 014 014 012
002 003 002 004 004 003 002 001 001 008 003 005 005 004 003 012 018 012 028 016 018 015 013 007 005 003 003 007 009 013 013
001 002 003 005 003 002 001 001 002 003 002 002 002 003 001 005 005 011 016 012 013 005 010 005 004 003 004 005 007 008 014
002 001 002 004 004 002 002 002 002 001 003 001 003 002 002 002 003 006 007 006 005 007 005 005 005 004 004 005 007 008 017
001 001 001 001 002 003 002 002 004 002 001 001 003 002 001 002 003 003 004 004 003 006 004 002 006 003 004 006 007 008 019
000 000 001 001 000 002 001 002 004 001 001 001 001 002 001 002 003 002 004 008 005 006 003 003 003 004 003 005 007 010 016
000 001 000 001 001 001 001 001 001 001 001 002 002 001 001 001 002 002 007 006 006 007 004 002 002 001 002 004 006 013 012
000 000 000 000 000 000 000 000 000 001 001 001 002 001 001 002 003 006 009 006 006 004 002 002 002 001 002 002 002 003 005
000 000 000 000 000 000 000 000 000 001 001 001 000 003 002 002 005 015 021 006 011 005 001 000 001 001 001 001 000 001 001
000 000 000 000 000 000 000 000 000 001 001 001 001 001 002 002 006 017 024 016 017 010 003 001 000 001 000 000 000 001 000
000 000 000 000 000 000 000 000 000 000 000 001 001 001 001 001 005 018 031 046 041 016 004 001 000 001 000 000 000 001 000
000 000 000 000 000 000 000 000 000 000 000 000 001 001 001 002 008 026 056 041 044 012 004 000 000 000 000 000 000 -99 -99
000 000 000 000 000 000 000 000 000 000 000 001 000 000 001 002 017 051 077 050 017 008 001 000 -99 000 000 -99 -99 -99 -99
000 000 000 000 000 000 000 000 000 000 000 000 000 001 001 004 017 081 083 034 024 013 000 000 000 -99 -99 -99 -99 -99 -99
000 000 000 000 000 000 000 -99 -99 000 000 000 000 000 002 006 039 071 055 033 029 006 000 000 000 -99 -99 -99 -99 -99 -99
000 000 001 001 000 000 -99 -99 -99 000 000 000 000 000 003 012 013 027 040 044 021 001 000 000 000 -99 -99 -99 -99 -99 -99
